problems/csplib-prob001/CarSequencing-models/compact/O2/lingeling/model-random12-solution000001.eprime-solution
language ESSENCE' 1.0

letting car_Function1D be
        [4, 15, 8, 20, 1, 2, 1, 8, 1, 1, 8, 14, 1, 20, 11, 21, 1, 1, 11, 1, 7, 2, 17, 15, 1, 14, 1, 8, 3, 1, 2, 16, 8,
         1, 1, 14, 1, 16, 8, 9, 1, 11, 1, 1, 8, 1, 1, 8, 2, 11, 1, 1, 11, 1, 1, 2, 1, 10, 1, 14, 2, 1, 8, 1, 17, 1, 12,
         8, 1, 1, 8, 2, 8, 1, 1, 19, 1, 8, 1, 2, 7, 1, 11, 13, 8, 1, 4, 14, 5, 1, 8, 1, 1, 8, 1, 1, 2, 1, 11, 13, 1, 2,
         1, 1, 11, 1, 1, 2, 11, 1, 1, 8, 1, 13, 11, 1, 1, 2, 16, 1, 8, 1, 1, 8, 13, 11, 1, 2, 16, 1, 14, 1, 15, 14, 2,
         8, 15, 1, 14, 15, 8, 1, 1, 8, 2, 1, 20, 11, 1, 2, 13, 11, 1, 1, 2, 5, 1, 8, 1, 11, 1, 21, 8, 1, 1, 14, 1, 3, 8,
         4, 11, 1, 14, 1, 6, 8, 20, 1, 10, 1, 1, 2, 1, 11, 14, 20, 12, 18, 1, 1, 8, 11, 2, 14, 5, 8, 1, 1, 2,
         1; int(1..200)]
